DATASET = "thpack1";
INSTANCE = "092";

WIDTH = 233;
HEIGHT = 220;
LENGTH = 587;

NO_OF_SHAPES = 3;
size = [|
  96,82,63 |
  74,63,59 |
  86,60,43 |
|];

verticality = [|
  1,1,1 |
  1,1,1 |
  0,1,1 |
|];

box_count = [
  32,
  33,
  23,
];
